%mem=1GB
#p opt=modredundant am1

MeCl + Cl- frozen

-1 1
 C                  0.09687174   -0.05485156   -0.36745964
 H                  0.09687174    1.00063444   -0.71544764
 H                  1.01094874   -0.58259456   -0.71544764
 H                 -0.81720526   -0.58259456   -0.71544764
 Cl                 0.09687174   -0.05485156    1.37403636
 Cl                -0.36162406    0.20476191   -3.82757271

B 1 5 F

